NAME : ClusterId_367 
COMMENT : (Gillet and Johnson) 
TYPE : CVRP 
DIMENSION : 33 
EDGE_WEIGHT_TYPE : EUC_2D 
CAPACITY : 60 
NODE_COORD_SECTION 
367 -110 -110 
273 -160 -160 
274 -160 -110 
267 -150 -70 
265 -150 -150 
266 -150 -110 
259 -140 -80 
257 -140 -140 
258 -140 -110 
277 -110 -60 
249 -130 -130 
251 -130 -90 
250 -130 -110 
269 -110 -70 
241 -120 -120 
243 -120 -100 
242 -120 -110 
261 -110 -80 
252 -110 -130 
253 -110 -90 
244 -110 -120 
245 -110 -100 
260 -110 -140 
276 -110 -160 
268 -110 -150 
246 -100 -120 
248 -100 -100 
264 -80 -80 
247 -100 -110 
272 -70 -70 
254 -90 -130 
256 -90 -90 
255 -90 -110 
DEMAND_SECTION 
367 2590
273 1
274 1
267 2
265 2
266 2
259 4
257 4
258 4
277 1
249 8
251 8
250 8
269 2
241 12
243 12
242 12
261 4
252 8
253 8
244 12
245 12
260 4
276 1
268 2
246 12
248 12
264 4
247 12
272 2
254 8
256 8
255 8
DEPOT_SECTION 
367
 -1
EOF